(set-logic QF_S)
(declare-fun _var_0xINPUT_103286_() String)
(declare-fun __woorpje_diseq_pref0_() String)
(declare-fun __woorpje_diseq_suf_l0_() String)
(declare-fun __woorpje_diseq_suf_r0_() String)
(assert (=(str.++  "a061UDrNVU" "")(str.++ __woorpje_diseq_pref0_  "r" __woorpje_diseq_suf_l0_  "")) )
(assert (=(str.++ _var_0xINPUT_103286_  "")(str.++ __woorpje_diseq_pref0_  "V" __woorpje_diseq_suf_r0_  "")) )
(check-sat)
